21° run output:
{
    "Function": "euclidB500.tsp",
    "Problem dimension": [
        399,
        94,
        64,
        12,
        102,
        98,
        418,
        403,
        299,
        173,
        95,
        29,
        15,
        59,
        340,
        383,
        188,
        372,
        425,
        236,
        18,
        437,
        67,
        368,
        34,
        198,
        185,
        360,
        145,
        66,
        129,
        235,
        289,
        416,
        45,
        101,
        49,
        214,
        40,
        377,
        363,
        181,
        279,
        328,
        406,
        168,
        249,
        420,
        382,
        170,
        117,
        1,
        3,
        240,
        449,
        80,
        273,
        58,
        135,
        203,
        104,
        42,
        158,
        6,
        124,
        438,
        282,
        120,
        486,
        146,
        32,
        347,
        462,
        153,
        54,
        380,
        83,
        128,
        123,
        37,
        195,
        405,
        74,
        245,
        364,
        354,
        5,
        247,
        277,
        38,
        216,
        169,
        72,
        445,
        314,
        33,
        264,
        338,
        389,
        164,
        423,
        326,
        395,
        243,
        267,
        242,
        246,
        106,
        421,
        204,
        362,
        488,
        130,
        16,
        4,
        118,
        76,
        92,
        44,
        255,
        211,
        341,
        432,
        11,
        260,
        441,
        82,
        294,
        378,
        256,
        183,
        369,
        232,
        73,
        346,
        401,
        259,
        189,
        24,
        159,
        352,
        87,
        430,
        474,
        147,
        428,
        206,
        461,
        241,
        288,
        69,
        361,
        472,
        93,
        116,
        141,
        408,
        410,
        442,
        478,
        47,
        196,
        284,
        375,
        234,
        119,
        110,
        91,
        330,
        212,
        490,
        126,
        316,
        191,
        253,
        381,
        227,
        112,
        287,
        283,
        225,
        350,
        149,
        337,
        332,
        213,
        97,
        458,
        268,
        19,
        56,
        136,
        115,
        257,
        224,
        342,
        63,
        453,
        254,
        351,
        186,
        70,
        333,
        439,
        21,
        476,
        469,
        489,
        304,
        13,
        444,
        10,
        218,
        138,
        89,
        291,
        370,
        470,
        8,
        171,
        139,
        30,
        48,
        427,
        411,
        440,
        367,
        434,
        52,
        321,
        396,
        387,
        295,
        456,
        239,
        376,
        155,
        463,
        388,
        409,
        371,
        81,
        301,
        487,
        51,
        275,
        31,
        466,
        251,
        366,
        305,
        217,
        25,
        307,
        122,
        285,
        109,
        125,
        397,
        334,
        398,
        339,
        315,
        269,
        481,
        79,
        85,
        475,
        9,
        7,
        272,
        446,
        419,
        471,
        233,
        131,
        302,
        465,
        107,
        413,
        278,
        345,
        373,
        156,
        443,
        166,
        184,
        335,
        144,
        433,
        310,
        143,
        160,
        14,
        281,
        20,
        177,
        451,
        36,
        473,
        331,
        50,
        349,
        179,
        65,
        414,
        496,
        176,
        39,
        477,
        404,
        226,
        468,
        193,
        210,
        290,
        495,
        422,
        68,
        229,
        261,
        250,
        222,
        435,
        485,
        180,
        28,
        426,
        374,
        459,
        392,
        447,
        391,
        353,
        452,
        479,
        385,
        258,
        298,
        492,
        197,
        484,
        493,
        165,
        61,
        357,
        313,
        300,
        84,
        309,
        100,
        359,
        497,
        208,
        26,
        200,
        265,
        219,
        303,
        415,
        317,
        0,
        175,
        192,
        172,
        271,
        412,
        182,
        167,
        228,
        137,
        99,
        480,
        142,
        148,
        223,
        35,
        151,
        205,
        483,
        163,
        306,
        356,
        27,
        318,
        121,
        178,
        113,
        358,
        499,
        2,
        127,
        152,
        140,
        17,
        43,
        41,
        464,
        86,
        237,
        248,
        429,
        344,
        88,
        311,
        187,
        424,
        336,
        161,
        252,
        75,
        325,
        108,
        207,
        132,
        308,
        400,
        448,
        111,
        262,
        324,
        436,
        323,
        498,
        114,
        297,
        494,
        53,
        215,
        202,
        293,
        390,
        407,
        402,
        327,
        150,
        77,
        103,
        276,
        312,
        457,
        450,
        286,
        263,
        270,
        244,
        319,
        230,
        71,
        174,
        386,
        467,
        55,
        154,
        220,
        199,
        78,
        491,
        190,
        209,
        365,
        134,
        157,
        57,
        454,
        23,
        133,
        46,
        96,
        296,
        292,
        343,
        231,
        22,
        355,
        90,
        280,
        274,
        320,
        384,
        194,
        460,
        322,
        394,
        393,
        379,
        162,
        201,
        238,
        62,
        455,
        105,
        221,
        482,
        417,
        348,
        329,
        431,
        60,
        266
    ],
    "Global Optimum": 0,
    "Algorithm": "Genetic algorithm",
    "Parameters": {
        "population": 30,
        "offspring": 30,
        "mutation probability": 0.002,
        "crossover probability": 0.9
    },
    "Fitness": 604222,
    "Solution": [
        399,
        94,
        64,
        12,
        102,
        98,
        418,
        403,
        299,
        173,
        95,
        29,
        15,
        59,
        340,
        383,
        188,
        372,
        425,
        236,
        18,
        437,
        67,
        368,
        34,
        198,
        185,
        360,
        145,
        66,
        129,
        235,
        289,
        416,
        45,
        101,
        49,
        214,
        40,
        377,
        363,
        181,
        279,
        328,
        406,
        168,
        249,
        420,
        382,
        170,
        117,
        1,
        3,
        240,
        449,
        80,
        273,
        58,
        135,
        203,
        104,
        42,
        158,
        6,
        124,
        438,
        282,
        120,
        486,
        146,
        32,
        347,
        462,
        153,
        54,
        380,
        83,
        128,
        123,
        37,
        195,
        405,
        74,
        245,
        364,
        354,
        5,
        247,
        277,
        38,
        216,
        169,
        72,
        445,
        314,
        33,
        264,
        338,
        389,
        164,
        423,
        326,
        395,
        243,
        267,
        242,
        246,
        106,
        421,
        204,
        362,
        488,
        130,
        16,
        4,
        118,
        76,
        92,
        44,
        255,
        211,
        341,
        432,
        11,
        260,
        441,
        82,
        294,
        378,
        256,
        183,
        369,
        232,
        73,
        346,
        401,
        259,
        189,
        24,
        159,
        352,
        87,
        430,
        474,
        147,
        428,
        206,
        461,
        241,
        288,
        69,
        361,
        472,
        93,
        116,
        141,
        408,
        410,
        442,
        478,
        47,
        196,
        284,
        375,
        234,
        119,
        110,
        91,
        330,
        212,
        490,
        126,
        316,
        191,
        253,
        381,
        227,
        112,
        287,
        283,
        225,
        350,
        149,
        337,
        332,
        213,
        97,
        458,
        268,
        19,
        56,
        136,
        115,
        257,
        224,
        342,
        63,
        453,
        254,
        351,
        186,
        70,
        333,
        439,
        21,
        476,
        469,
        489,
        304,
        13,
        444,
        10,
        218,
        138,
        89,
        291,
        370,
        470,
        8,
        171,
        139,
        30,
        48,
        427,
        411,
        440,
        367,
        434,
        52,
        321,
        396,
        387,
        295,
        456,
        239,
        376,
        155,
        463,
        388,
        409,
        371,
        81,
        301,
        487,
        51,
        275,
        31,
        466,
        251,
        366,
        305,
        217,
        25,
        307,
        122,
        285,
        109,
        125,
        397,
        334,
        398,
        339,
        315,
        269,
        481,
        79,
        85,
        475,
        9,
        7,
        272,
        446,
        419,
        471,
        233,
        131,
        302,
        465,
        107,
        413,
        278,
        345,
        373,
        156,
        443,
        166,
        184,
        335,
        144,
        433,
        310,
        143,
        160,
        14,
        281,
        20,
        177,
        451,
        36,
        473,
        331,
        50,
        349,
        179,
        65,
        414,
        496,
        176,
        39,
        477,
        404,
        226,
        468,
        193,
        210,
        290,
        495,
        422,
        68,
        229,
        261,
        250,
        222,
        435,
        485,
        180,
        28,
        426,
        374,
        459,
        392,
        447,
        391,
        353,
        452,
        479,
        385,
        258,
        298,
        492,
        197,
        484,
        493,
        165,
        61,
        357,
        313,
        300,
        84,
        309,
        100,
        359,
        497,
        208,
        26,
        200,
        265,
        219,
        303,
        415,
        317,
        0,
        175,
        192,
        172,
        271,
        412,
        182,
        167,
        228,
        137,
        99,
        480,
        142,
        148,
        223,
        35,
        151,
        205,
        483,
        163,
        306,
        356,
        27,
        318,
        121,
        178,
        113,
        358,
        499,
        2,
        127,
        152,
        140,
        17,
        43,
        41,
        464,
        86,
        237,
        248,
        429,
        344,
        88,
        311,
        187,
        424,
        336,
        161,
        252,
        75,
        325,
        108,
        207,
        132,
        308,
        400,
        448,
        111,
        262,
        324,
        436,
        323,
        498,
        114,
        297,
        494,
        53,
        215,
        202,
        293,
        390,
        407,
        402,
        327,
        150,
        77,
        103,
        276,
        312,
        457,
        450,
        286,
        263,
        270,
        244,
        319,
        230,
        71,
        174,
        386,
        467,
        55,
        154,
        220,
        199,
        78,
        491,
        190,
        209,
        365,
        134,
        157,
        57,
        454,
        23,
        133,
        46,
        96,
        296,
        292,
        343,
        231,
        22,
        355,
        90,
        280,
        274,
        320,
        384,
        194,
        460,
        322,
        394,
        393,
        379,
        162,
        201,
        238,
        62,
        455,
        105,
        221,
        482,
        417,
        348,
        329,
        431,
        60,
        266
    ],
    "Nb of functions evaluations": 200010,
    "Computational time in seconds": 943.8418860435486,
    "Stopping criterion in evaluations": 200000
}